25692
50,93,159,363,548,599,633,840,897,989,1143,1215,1265,1266,1322,1361,1457,1498,1537,1584,1796,1799,1911,1929,1952,1953,2089,2116,2182,2236,2239,2326,2504,2536,2538,2575,2611,2836,2848,3050,3094,3148,3216,3419,3514,3562,3643,3752,3773,3779,3882,4021,4030,4131,4186,4235,4352,4487,4569,4622,4688
